robust/generate/spp_dkp_Lefebvre_et_al_2026/src/shortest_path_8_5.kp
47
212

[0.52 4.49 3.36 1.62 3.26 3.69 2.98 1.91 3.25 1.14 1.18 0.11 0.45 1.38 2.95 1.48 0.85 4.23 1.25 1.26 4.4 0.59 3.44 0.02 3.95 3.21 2.55 4.31 2.36 0.82 2.47 1.35 0.05 4.07 3.03 4.34 3.43 1.23 1.67 2.43 2.52 1.19 0.8 1.66 0.65 1.79]

[32 49 89 93 55 67 24 99 33 64 94 84 10 60 44 30 82 13 59 25 88 50 12 10 41 66 73 81 17 6 85 79 6 45 93 9 70 73 11 32 18 92 92 22 45 19]
